p edge 53
e 0 1
e 0 6
e 0 13
e 0 21
e 0 29
e 0 50
e 1 12
e 1 13
e 1 25
e 1 28
e 1 29
e 1 36
e 1 38
e 2 10
e 2 17
e 2 43
e 2 44
e 3 19
e 3 49
e 4 7
e 4 23
e 4 51
e 5 15
e 5 18
e 5 20
e 5 32
e 5 48
e 6 11
e 6 13
e 6 50
e 6 52
e 7 23
e 7 26
e 7 27
e 7 39
e 7 51
e 8 14
e 8 16
e 8 22
e 8 31
e 8 49
e 9 21
e 9 29
e 9 30
e 9 38
e 10 27
e 10 34
e 10 39
e 10 40
e 10 43
e 10 44
e 11 45
e 11 52
e 12 15
e 12 25
e 12 28
e 13 25
e 13 32
e 13 52
e 14 16
e 14 30
e 15 20
e 15 25
e 15 28
e 15 32
e 15 35
e 16 30
e 16 31
e 16 36
e 16 38
e 16 43
e 17 31
e 17 41
e 17 43
e 17 44
e 18 32
e 18 45
e 18 48
e 19 22
e 19 24
e 19 41
e 19 49
e 20 35
e 20 48
e 21 29
e 21 46
e 21 50
e 22 31
e 22 41
e 22 49
e 23 26
e 24 37
e 24 41
e 24 42
e 25 32
e 26 39
e 26 47
e 27 39
e 27 42
e 27 44
e 27 51
e 28 35
e 28 36
e 28 40
e 29 38
e 30 38
e 31 41
e 31 43
e 32 45
e 32 52
e 33 45
e 33 48
e 34 35
e 34 39
e 34 40
e 34 47
e 35 40
e 35 47
e 36 38
e 36 40
e 36 43
e 37 42
e 37 51
e 39 47
e 40 43
e 41 42
e 41 44
e 42 44
e 42 51
e 45 48
e 45 52
e 46 50
c k 1
